Route #1: 1 29 16 8 21 49 13 54 57 15 6 14 1
Route #2: 1 53 37 17 38 23 45 3 39 1
Route #3: 1 47 46 48 25 43 22 1
Route #4: 1 52 11 30 62 41 7 33 1
Route #5: 1 20 31 19 2 10 12 50 32 1
Route #6: 1 61 35 26 5 36 42 24 28 40 4 55 56 1
Route #7: 1 59 51 34 18 27 60 1
Route #8: 1 9 44 58 1
cost 1558
